certificates/rado_a13_c55_N32.cnf
c Rad2 upper bound instance: x1 + 13*x2 - x3 = 55, interval [1,32]
p cnf 32 158
1 5 11 0
-1 -5 -11 0
1 6 24 0
-1 -6 -24 0
2 5 12 0
-2 -5 -12 0
2 6 25 0
-2 -6 -25 0
3 5 13 0
-3 -5 -13 0
3 6 26 0
-3 -6 -26 0
1 4 0
-1 -4 0
4 5 14 0
-4 -5 -14 0
4 6 27 0
-4 -6 -27 0
2 4 5 0
-2 -4 -5 0
5 15 0
-5 -15 0
5 6 28 0
-5 -6 -28 0
3 4 6 0
-3 -4 -6 0
5 6 16 0
-5 -6 -16 0
6 29 0
-6 -29 0
4 7 0
-4 -7 0
5 7 17 0
-5 -7 -17 0
6 7 30 0
-6 -7 -30 0
4 5 8 0
-4 -5 -8 0
5 8 18 0
-5 -8 -18 0
6 8 31 0
-6 -8 -31 0
4 6 9 0
-4 -6 -9 0
5 9 19 0
-5 -9 -19 0
6 9 32 0
-6 -9 -32 0
4 7 10 0
-4 -7 -10 0
5 10 20 0
-5 -10 -20 0
4 8 11 0
-4 -8 -11 0
5 11 21 0
-5 -11 -21 0
4 9 12 0
-4 -9 -12 0
5 12 22 0
-5 -12 -22 0
4 10 13 0
-4 -10 -13 0
5 13 23 0
-5 -13 -23 0
4 11 14 0
-4 -11 -14 0
5 14 24 0
-5 -14 -24 0
4 12 15 0
-4 -12 -15 0
5 15 25 0
-5 -15 -25 0
4 13 16 0
-4 -13 -16 0
5 16 26 0
-5 -16 -26 0
1 3 17 0
-1 -3 -17 0
4 14 17 0
-4 -14 -17 0
5 17 27 0
-5 -17 -27 0
2 3 18 0
-2 -3 -18 0
4 15 18 0
-4 -15 -18 0
5 18 28 0
-5 -18 -28 0
3 19 0
-3 -19 0
4 16 19 0
-4 -16 -19 0
5 19 29 0
-5 -19 -29 0
3 4 20 0
-3 -4 -20 0
4 17 20 0
-4 -17 -20 0
5 20 30 0
-5 -20 -30 0
3 5 21 0
-3 -5 -21 0
4 18 21 0
-4 -18 -21 0
5 21 31 0
-5 -21 -31 0
3 6 22 0
-3 -6 -22 0
4 19 22 0
-4 -19 -22 0
5 22 32 0
-5 -22 -32 0
3 7 23 0
-3 -7 -23 0
4 20 23 0
-4 -20 -23 0
3 8 24 0
-3 -8 -24 0
4 21 24 0
-4 -21 -24 0
3 9 25 0
-3 -9 -25 0
4 22 25 0
-4 -22 -25 0
3 10 26 0
-3 -10 -26 0
4 23 26 0
-4 -23 -26 0
3 11 27 0
-3 -11 -27 0
4 24 27 0
-4 -24 -27 0
3 12 28 0
-3 -12 -28 0
4 25 28 0
-4 -25 -28 0
3 13 29 0
-3 -13 -29 0
4 26 29 0
-4 -26 -29 0
1 2 30 0
-1 -2 -30 0
3 14 30 0
-3 -14 -30 0
4 27 30 0
-4 -27 -30 0
2 31 0
-2 -31 0
3 15 31 0
-3 -15 -31 0
4 28 31 0
-4 -28 -31 0
2 3 32 0
-2 -3 -32 0
3 16 32 0
-3 -16 -32 0
4 29 32 0
-4 -29 -32 0
