certificates/rado_a13_c55_N32.drat
-29 2 -32 0
7 29 2 0
-31 -32 0
-6 -32 0
-2 -32 0
d -3 -2 -32 0
-32 0
3 6 0
4 -29 0
-29 0
6 0
4 0
-1 0
-7 0
-27 0
-9 0
-3 0
17 0
2 0
23 0
11 0
25 0
19 0
16 0
13 0
-20 0
-14 0
-31 0
0
